NAME : A-n65-k9-40
TYPE : VRP-D
DIMENSION : 40
CAPACITY : 100
NODE_COORD_SECTION 
 1 25 51
 2 35 7
 3 93 75
 4 53 95
 5 51 81
 6 51 55
 7 1 67
 8 9 23
 9 75 7
 10 15 97
 11 79 5
 12 9 19
 13 39 1
 14 47 1
 15 33 97
 16 27 83
 17 83 79
 18 17 59
 19 47 19
 20 57 9
 21 87 41
 22 55 25
 23 21 91
 24 21 13
 25 67 1
 26 59 21
 27 1 75
 28 33 85
 29 25 21
 30 45 29
 31 63 77
 32 1 77
 33 77 41
 34 35 11
 35 9 77
 36 61 87
 37 59 91
 38 63 79
 39 97 67
 40 9 45
DEMAND_SECTION 
1 0 
2 12 
3 24 
4 16 
5 7 
6 9 
7 20 
8 10 
9 18 
10 26 
11 17 
12 2 
13 11 
14 9 
15 12 
16 11 
17 12 
18 23 
19 7 
20 1 
21 26 
22 10 
23 9 
24 22 
25 21 
26 17 
27 2 
28 15 
29 16 
30 14 
31 23 
32 24 
33 2 
34 12 
35 18 
36 5 
37 19 
38 15 
39 8 
40 6 
DEPOT_SECTION 
 1  
 -1  
EOF 
